/*Objective function*/
Maximize: 90S11 +92S21 +94S31 +84S41 +82S51 +86S61 +96S71 +93S81 +87S91 +83S101+85S111 +88S121+90S12 +92S22 +94S32 +84S42 +82S52 +86S62 +96S72 +93S82 +87S92 +83S102+85S112 +88S122+90S13 +92S23 +94S33 +84S43 +82S53 +86S63 +96S73 +93S83 +87S93 +83S103+85S113 +88S123+90S14+92S24 +94S34 +84S44 +82S54 +86S64 +96S74 +93S84 +87S94 +83S104+85S114 +88S124;


/* Constraints */

/*GPA constraint*/
3.4S11+3.25S21+3.68S31+ 2.85S41 +2.92S51 +3.32S61 +3.75S71 +3.42S81 +2.98S91 +3.18S101+3.27S111 +2.89S121 >= 9;
3.4S12+3.25S22+3.68S32+ 2.85S42 +2.92S52 +3.32S62 +3.75S72 +3.42S82 +2.98S92 +3.18S102+3.27S112 +2.89S122 >= 9;
3.4S13+3.25S23+3.68S33+ 2.85S43 +2.92S53 +3.32S63 +3.75S73 +3.42S83 +2.98S93 +3.18S103+3.27S113 +2.89S123 >= 9;
3.4S14+3.25S24+3.68S34+ 2.85S44 +2.92S54 +3.32S64 +3.75S74 +3.42S84 +2.98S94 +3.18S104+3.27S114 +2.89S124 >= 9;
  
/*Presentation skill*/
4.2S11 +4.6S21 +4.3S31 +3.8S41 +3.75S51 +4.4S61 +4.8S71 +4.44S81 +4.12S91 +4.28S101+4.54S111 +3.6S121 >= 11;
4.2S12 +4.6S22 +4.3S32 +3.8S42 +3.75S52 +4.4S62 +4.8S72 +4.44S82 +4.12S92 +4.28S102+4.54S112 +3.6S122 >= 11;
4.2S13 +4.6S23 +4.3S33 +3.8S43 +3.75S53 +4.4S63 +4.8S73 +4.44S83 +4.12S93 +4.28S103+4.54S113 +3.6S123 >= 11;
4.2S14 +4.6S24 +4.3S34 +3.8S44 +3.75S54 +4.4S64 +4.8S74 +4.44S84 +4.12S94 +4.28S104+4.54S114 +3.6S124 >= 11;

/*Team Participation*/
8S11 +7S21 +9S31 +7S41 +6S51 +8S61 +10S71 +6S81 +6S91 +7S101+8S111 +4S121 >= 21;
8S12 +7S22 +9S32 +7S42 +6S52 +8S62 +10S72 +6S82 +6S92 +7S102+8S112 +4S122 >= 21;
8S13 +7S23 +9S33 +7S43 +6S53 +8S63 +10S73 +6S83 +6S93 +7S103+8S113 +4S123 >= 21;
8S14 +7S24 +9S34 +7S44 +6S54 +8S64 +10S74 +6S84 +6S94 +7S104+8S114 +4S124 >= 21;

/*Group constraint*/
+S11 +S21 +S31 +S41 +S51 +S61 +S71 +S81 +S91 +S101+S111 +S121 = 3;
+S12 +S22 +S32 +S42 +S52 +S62 +S72 +S82 +S92 +S102 +S112 +S122 = 3;
+S13 +S23 +S33 +S43 +S53 +S63 +S73 +S83 +S93 +S103 +S113 +S123 = 3;
+S14 +S24 +S34 +S44 +S54 +S64 +S74 +S84 +S94 +S104 +S114 +S124 = 3;

/*Student Constraint*/
+S11 +S12 +S13 +S14 = 1;
+S21 +S22 +S23 +S24 = 1;
+S31 +S32 +S33 +S34 = 1;
+S41 +S42 +S43 +S44 = 1;
+S51 +S52 +S53 +S54 = 1;
+S61 +S62 +S63 +S64 = 1;
+S71 +S72 +S73 +S74 = 1;
+S81 +S82 +S83 +S84 = 1;
+S91 +S92 +S93 +S94 = 1;
+S101 +S102 +S103 +S104 = 1;
+S111 +S112 +S113 +S114 = 1;
+S121 +S122 +S123 +S124 = 1;

bin S11, S21, S31, S41, S51, S61, S71, S81, S91, S101, 
S111, S121, S12, S22, S32, S42, S52, S62, S72, S82, 
S92, S102, S112, S122, S13, S23, S33, S43, S53, S63, 
S73, S83, S93, S103, S113, S123, S14, S24, S34, S44, 
S54, S64, S74, S84, S94, S104, S114, S124;